Minimize
  - 13 y_1 - 8 y_2 - 18 y_3 - 21 y_4 - 14 y_5 - 15 y_6 - 20 y_7 - 6 y_8
   - 16 y_9 + 53 x_0_1 + 73 x_0_3 + 57 x_0_5 + 61 x_0_6 + 41 x_1_4
   + 28 x_1_5 + 27 x_1_7 + 59 x_1_8 + 53 x_2_3 + 44 x_2_6 + 42 x_3_4
   + 31 x_3_5 + 91 x_3_6 + 74 x_3_7 + 53 x_4_2 + 70 x_4_6 + 41 x_4_7
   + 78 x_4_8 + 50 x_5_8 + 53 x_5_9 + 78 x_6_8 + 26 x_7_9 + 78 x_8_9
   + 131 Constant
Subject To
 c_0: y_2 = 1
 c_1_0: y_0 >= 1
 c_1_1: y_1 >= 1
 c_1_2: y_2 >= 1
 c_1_3: y_3 >= 1
 c_1_4: y_4 >= 1
 c_1_5: y_5 >= 1
 c_1_6: y_6 >= 1
 c_1_7: y_7 >= 1
 c_1_8: y_8 >= 1
 c_1_9: y_9 >= 1
 c_2_0: - 2 y_0 + x_0_1 + x_0_3 + x_0_5 + x_0_6 = 0
 c_2_1: - 2 y_1 + x_0_1 + x_1_4 + x_1_5 + x_1_7 + x_1_8 = 0
 c_2_2: - 2 y_2 + x_2_3 + x_2_6 + x_4_2 = 0
 c_2_3: - 2 y_3 + x_0_3 + x_2_3 + x_3_4 + x_3_5 + x_3_6 + x_3_7 = 0
 c_2_4: - 2 y_4 + x_1_4 + x_3_4 + x_4_2 + x_4_6 + x_4_7 + x_4_8 = 0
 c_2_5: - 2 y_5 + x_0_5 + x_1_5 + x_3_5 + x_5_8 + x_5_9 = 0
 c_2_6: - 2 y_6 + x_0_6 + x_2_6 + x_3_6 + x_4_6 + x_6_8 = 0
 c_2_7: - 2 y_7 + x_1_7 + x_3_7 + x_4_7 + x_7_9 = 0
 c_2_8: - 2 y_8 + x_1_8 + x_4_8 + x_5_8 + x_6_8 + x_8_9 = 0
 c_2_9: - 2 y_9 + x_5_9 + x_7_9 + x_8_9 = 0
Bounds
 Constant = 1
Binaries
 y_0 y_1 y_2 y_3 y_4 y_5 y_6 y_7 y_8 y_9 x_0_1 x_0_3 x_0_5 x_0_6 x_1_4
 x_1_5 x_1_7 x_1_8 x_2_3 x_2_6 x_3_4 x_3_5 x_3_6 x_3_7 x_4_2 x_4_6 x_4_7
 x_4_8 x_5_8 x_5_9 x_6_8 x_7_9 x_8_9
End
